1304086
21,63,9,65,76,8,89,108,23,66,3,78,43,19,62,2,82,24,44,81,0,4,34,97,100,33,51,28,15,106,93,45,80,1,58,83,50,31,94,42,84,60,5,29,102,55,91,73,22,14,16,79,47,20,52,99,101,53,57,96,46,70,104,12,92,95,86,61,18,72,98,75,49,17,6,87,64,59,41,105,107,32,77,54,67,39,11,35,27,7,13,38,30,69,68,26,85,74,56,71,25,36,37,40,48,10,88,90,103
